/*********************************************
 * OPL 12.6.0.0 Data
 * Author: Adrian Rodriguez Bazaga, Pau Rodriguez Esmerats
 * Creation Date: 21/11/2017 at 23:07:29
 *********************************************/

nNurses=132;
maxConsec=2;
maxPresence=7;
maxHours=5;
minHours=1;
demand= [27 36 53 39 36 53 39 37 38 13 4 2 7 4 7 3 6 3 3 2 21 45 24 37  ];
